12 16 6 10
19 15 2 11 20 4 18 7 5 7 12 19 16 16 5 20 
14.91 1.67 2.82 9.5 14.77 0.17 5.65 9.19 10.55 2.97 10.56 7.5 7.73 12.48 12.9 12.24 
7.74 0.36 12.52 15.57 5.99 8.84 9.22 4.95 13.25 11.68 7.03 4.24 0.95 10.14 7.56 10 
6.79 4.09 7.92 7.06 7.94 0.44 12.82 13.67 11.07 4.61 6.48 2.43 14.13 13.71 13.15 15.81 
2.16 8.13 14.21 4.86 9.91 1.77 11.57 2.35 10.27 0.25 3.7 6.6 11.06 3.65 15.85 6.65 
6.99 4.14 15.51 6.82 9.52 0.46 11.59 12.17 5.62 6.02 9.8 3.38 1.52 1.57 3.95 3.88 
11.44 8.66 2.42 14.63 1.22 3.2 10.85 14.72 7.3 2.96 15.77 13.74 15.3 10.96 12.29 11.32 
8 8 8 8 8 8 8 8 8 8 8 8 8 8 8 8 
6.81 13.3 10.92 13.91 12.49 12.37 14.56 9.63 11.55 7.26 9.7 0.25 7.04 15.64 15.04 0.43 
2.23 13.62 5.93 12.4 5.02 0.44 9.99 0.08 12.75 7.78 4.8 10.82 4.31 15.04 15.38 1.38 
15.65 4.76 10.18 9.12 9.19 1.04 0.31 5.17 8.88 9.3 4.68 0.88 9.29 1.63 4.31 13.05 
14.66 1.85 7.47 2.87 4.48 6.17 2.44 1.58 14.16 3.47 9.19 7.99 5.98 12.16 14.94 13.04 
3.54 0.05 10.5 0.11 15.71 4.93 2.81 14.41 4.08 11.82 2.77 1.9 15.67 9.53 4.82 3.07 
1 1 1 1 1 1 1 1 1 1 1 1 1 1 1 1 
1 1 1 1 1 1 1 1 1 1 1 1 1 1 1 1 
1 1 1 1 1 1 1 1 1 1 1 1 1 1 1 1 
1 1 1 1 1 1 1 1 1 1 1 1 1 1 1 1 
1 1 1 1 1 1 1 1 1 1 1 1 1 1 1 1 
1 1 1 1 1 1 1 1 1 1 1 1 1 1 1 1 
1 1 1 1 1 1 1 1 1 1 1 1 1 1 1 1 
1 1 1 1 1 1 1 1 1 1 1 1 1 1 1 1 
1 1 1 1 1 1 1 1 1 1 1 1 1 1 1 1 
1 1 1 1 1 1 1 1 1 1 1 1 1 1 1 1 
1 1 1 1 1 1 1 1 1 1 1 1 1 1 1 1 
1 1 1 1 1 1 1 1 1 1 1 1 1 1 1 1 
0.01 0.01 0.01 0.01 0.01 0.01 0.01 0.01 0.01 0.01 0.01 0.01 0.01 0.01 0.01 0.01 
0.02 0.02 0.02 0.02 0.02 0.02 0.02 0.02 0.02 0.02 0.02 0.02 0.02 0.02 0.02 0.02 
0.03 0.03 0.03 0.03 0.03 0.03 0.03 0.03 0.03 0.03 0.03 0.03 0.03 0.03 0.03 0.03 
0.04 0.04 0.04 0.04 0.04 0.04 0.04 0.04 0.04 0.04 0.04 0.04 0.04 0.04 0.04 0.04 
0.05 0.05 0.05 0.05 0.05 0.05 0.05 0.05 0.05 0.05 0.05 0.05 0.05 0.05 0.05 0.05 
0.06 0.06 0.06 0.06 0.06 0.06 0.06 0.06 0.06 0.06 0.06 0.06 0.06 0.06 0.06 0.06 
0.07 0.07 0.07 0.07 0.07 0.07 0.07 0.07 0.07 0.07 0.07 0.07 0.07 0.07 0.07 0.07 
0.2 0.2 0.2 0.2 0.2 0.2 0.2 0.2 0.2 0.2 0.2 0.2 0.2 0.2 0.2 0.2 
0.4 0.4 0.4 0.4 0.4 0.4 0.4 0.4 0.4 0.4 0.4 0.4 0.4 0.4 0.4 0.4 
0.6 0.6 0.6 0.6 0.6 0.6 0.6 0.6 0.6 0.6 0.6 0.6 0.6 0.6 0.6 0.6 
0.8 0.8 0.8 0.8 0.8 0.8 0.8 0.8 0.8 0.8 0.8 0.8 0.8 0.8 0.8 0.8 
1 1 1 1 1 1 1 1 1 1 1 1 1 1 1 1 
